NAME: random-85-20821
TYPE: TSP
COMMENT: size=85 seed=20821
DIMENSION: 172
EDGE_WEIGHT_TYPE: EUC_2D
NODE_COORD_SECTION
+0 547 943
-0 547 943
+1 6 286
-1 211 140
+2 262 822
-2 592 807
+3 185 289
-3 216 847
+4 289 989
-4 639 475
+5 39 296
-5 928 213
+6 914 756
-6 921 333
+7 269 482
-7 46 903
+8 144 971
-8 735 95
+9 475 726
-9 161 959
+10 386 33
-10 891 661
+11 630 734
-11 491 971
+12 608 455
-12 348 551
+13 618 243
-13 868 788
+14 341 486
-14 420 496
+15 517 698
-15 126 330
+16 947 918
-16 90 785
+17 937 848
-17 683 695
+18 792 851
-18 402 804
+19 699 882
-19 740 957
+20 370 504
-20 899 223
+21 638 866
-21 989 43
+22 848 158
-22 163 64
+23 329 280
-23 763 428
+24 223 590
-24 869 968
+25 332 363
-25 31 124
+26 77 324
-26 535 801
+27 205 618
-27 512 391
+28 383 413
-28 512 454
+29 660 16
-29 368 647
+30 42 398
-30 560 546
+31 622 715
-31 804 365
+32 324 485
-32 586 993
+33 212 150
-33 356 457
+34 560 615
-34 316 286
+35 348 127
-35 285 449
+36 705 620
-36 496 92
+37 932 289
-37 345 988
+38 267 26
-38 125 89
+39 483 287
-39 884 606
+40 463 833
-40 538 713
+41 668 43
-41 260 745
+42 117 93
-42 589 794
+43 430 979
-43 11 308
+44 154 528
-44 501 574
+45 866 358
-45 891 13
+46 938 878
-46 813 757
+47 554 639
-47 860 230
+48 935 981
-48 286 686
+49 706 453
-49 350 155
+50 109 55
-50 787 579
+51 704 234
-51 328 76
+52 258 797
-52 484 337
+53 511 892
-53 96 931
+54 231 147
-54 160 266
+55 179 918
-55 933 117
+56 169 959
-56 607 351
+57 838 126
-57 796 203
+58 899 858
-58 583 216
+59 58 273
-59 722 744
+60 889 270
-60 57 61
+61 129 754
-61 102 562
+62 260 800
-62 160 152
+63 21 16
-63 156 70
+64 793 808
-64 320 989
+65 279 937
-65 93 233
+66 880 207
-66 890 898
+67 588 980
-67 129 9
+68 501 741
-68 127 426
+69 783 944
-69 538 672
+70 710 207
-70 363 600
+71 377 452
-71 981 382
+72 427 625
-72 780 161
+73 870 505
-73 626 295
+74 137 257
-74 728 587
+75 601 532
-75 50 850
+76 175 139
-76 48 846
+77 699 343
-77 836 955
+78 93 322
-78 777 894
+79 331 929
-79 550 324
+80 748 406
-80 451 598
+81 521 14
-81 250 222
+82 262 158
-82 886 657
+83 616 896
-83 442 675
+84 229 197
-84 609 445
+85 491 217
-85 155 276
PRECEDENCE_SECTION
+0 -0
+1 -1
+2 -2
+3 -3
+4 -4
+5 -5
+6 -6
+7 -7
+8 -8
+9 -9
+10 -10
+11 -11
+12 -12
+13 -13
+14 -14
+15 -15
+16 -16
+17 -17
+18 -18
+19 -19
+20 -20
+21 -21
+22 -22
+23 -23
+24 -24
+25 -25
+26 -26
+27 -27
+28 -28
+29 -29
+30 -30
+31 -31
+32 -32
+33 -33
+34 -34
+35 -35
+36 -36
+37 -37
+38 -38
+39 -39
+40 -40
+41 -41
+42 -42
+43 -43
+44 -44
+45 -45
+46 -46
+47 -47
+48 -48
+49 -49
+50 -50
+51 -51
+52 -52
+53 -53
+54 -54
+55 -55
+56 -56
+57 -57
+58 -58
+59 -59
+60 -60
+61 -61
+62 -62
+63 -63
+64 -64
+65 -65
+66 -66
+67 -67
+68 -68
+69 -69
+70 -70
+71 -71
+72 -72
+73 -73
+74 -74
+75 -75
+76 -76
+77 -77
+78 -78
+79 -79
+80 -80
+81 -81
+82 -82
+83 -83
+84 -84
+85 -85
EOF
